#######################################################
#CASTEP cell file: layer4_OTF.cell
#Created using the Atomic Simulation Environment (ASE)#
#######################################################

%BLOCK LATTICE_CART
    6.2390590317 0.0000000000 0.0000000000
    0.0000000000 6.2390590317 0.0000000000
    0.0000000000 0.0000000000 19.1858800974
%ENDBLOCK LATTICE_CART


%BLOCK POSITIONS_ABS
    O 1.712577 4.846410 13.991241
    O 4.853340 4.810900 13.994209
    O 1.752347 1.041365 12.980440
    O 4.832185 0.995076 12.961102
    Pd 2.898301 5.772104 9.025185
    Pd 0.419760 0.776035 9.016765
    Pd 1.655269 3.260749 9.022412
    Pd 5.344147 4.571442 9.066230
    Pd 4.146165 2.051931 9.057075
    Pd 4.818110 0.183460 11.009164
    Pd 6.073906 2.713926 10.979304
    Pd 1.064031 5.092080 10.985063
    Pd 2.268700 1.409709 11.004454
    Pd 3.529103 3.925366 11.086683
    Pd 3.284441 5.994717 13.459884
    Pd 0.169084 6.021302 13.461719
    Pd 1.725523 3.036162 13.275801
    Pd 4.824655 2.974487 13.337010
%ENDBLOCK POSITIONS_ABS
