#######################################################
#CASTEP cell file: substrate_2layers.cell
#Created using the Atomic Simulation Environment (ASE)#
#######################################################

%BLOCK LATTICE_CART
    6.2265247000 0.0000000000 0.0000000000
    0.0000000000 6.2265247000 0.0000000000
    0.0000000000 0.0000000000 13.0389687000
%ENDBLOCK LATTICE_CART


%BLOCK POSITIONS_ABS
    Pd 2.493076 4.977291 3.908103
    Pd 0.007746 6.249849 3.793435
    Pd 1.237130 2.490790 3.906037
    Pd 4.993629 3.753225 3.809167
    Pd 5.603872 1.867957 1.951000
    Pd 4.358567 5.603872 1.951000
    Pd 3.113262 3.113262 1.951000
    Pd 1.867957 0.622652 1.951000
    Pd 0.622652 4.358567 1.951000
    Pd 3.735915 1.245305 0.000000
    Pd 2.490610 4.981220 0.000000
    Pd 1.245305 2.490610 0.000000
    Pd 0.000000 0.000000 0.000000
    Pd 4.981220 3.735915 0.000000
%ENDBLOCK POSITIONS_ABS

%BLOCK IONIC_CONSTRAINTS 
     1  Pd  10   1 0 0 
     2  Pd  10   0 1 0 
     3  Pd  10   0 0 1 
     4  Pd  11   1 0 0 
     5  Pd  11   0 1 0 
     6  Pd  11   0 0 1 
     7  Pd  12   1 0 0 
     8  Pd  12   0 1 0 
     9  Pd  12   0 0 1 
    10  Pd  13   1 0 0 
    11  Pd  13   0 1 0 
    12  Pd  13   0 0 1 
    13  Pd  14   1 0 0 
    14  Pd  14   0 1 0 
    15  Pd  14   0 0 1 
%ENDBLOCK IONIC_CONSTRAINTS 
%BLOCK SPECIES_POT

C C_OTF.usp
O O_OTF.usp
Pd Pd_OTF.usp
%ENDBLOCK SPECIES_POT
FIX_COM : False
FIX_ALL_CELL : True
KPOINTS_MP_GRID :   4 4 1
KPOINTS_MP_OFFSET :   0. 0. 0.
